150
[30,31,32,33,34,35,36,37,38,39,40,41,42,43,44,45,46,47,48,49,50,51,52,53,54,55,56,57,58,59,60,61,62,63,64,65,66,67,68,69,70,71,72,73,74,75,76,77,78,79,80,81,82,83,84,85,86,87,88,89,90,91,92,93,94,95,96,97,98,99,100,101,102,103,104,105]
[10,9,13,15,10,10,14,6,13,13,13,10,8,10,8,11,15,7,9,13,7,9,7,10,16,13,13,15,10,11,11,9,10,10,10,9,8,9,9,7,11,11,15,5,9,8,6,12,5,9,10,11,5,9,5,8,7,8,13,7,12,12,9,17,4,13,6,6,9,10,12,5,10,12,11,8]
